7098
1 1 1 0 0 1 0 0 1 0 0 0 1 1 1 0 0 0 0 1 0 1 0 1 0 0 0 0 0 0
19 21 21 23 14 21 5 12 2 19 8 23 0 23 14 23 21 21 21 13 12 13 5 19 8 13 5 13 0 23 1 13 8 2 5 2 8 14 1 21 14 8 14 23 1 2 0 13 12 1 8 23 2 23 21 19 8 1 14 0 2 2 5 8 12 1 23 19 19 23